p edge 50 126
e 0 5
e 0 10
e 0 14
e 0 41
e 1 6
e 1 12
e 1 30
e 1 34
e 1 36
e 2 5
e 2 15
e 2 28
e 2 31
e 2 33
e 2 37
e 2 38
e 2 40
e 2 41
e 3 22
e 3 25
e 3 37
e 3 46
e 4 7
e 4 28
e 4 48
e 5 31
e 6 17
e 6 25
e 6 26
e 6 30
e 6 40
e 6 45
e 7 16
e 7 23
e 7 32
e 7 38
e 7 41
e 7 42
e 7 43
e 8 9
e 8 15
e 8 23
e 9 11
e 9 28
e 10 11
e 10 18
e 10 21
e 10 30
e 10 35
e 10 40
e 10 47
e 11 14
e 11 18
e 11 20
e 11 25
e 11 29
e 11 49
e 12 36
e 12 37
e 12 42
e 13 44
e 14 18
e 14 27
e 14 33
e 14 34
e 14 40
e 16 25
e 16 31
e 16 36
e 17 18
e 17 23
e 17 27
e 17 39
e 17 43
e 18 22
e 18 26
e 18 40
e 18 43
e 19 24
e 19 35
e 19 45
e 20 23
e 20 32
e 20 33
e 20 37
e 20 38
e 20 47
e 21 27
e 21 28
e 21 31
e 21 45
e 21 48
e 22 23
e 22 26
e 23 28
e 23 29
e 23 37
e 23 49
e 24 31
e 24 39
e 25 30
e 25 43
e 25 46
e 26 28
e 26 34
e 27 39
e 27 47
e 28 42
e 29 44
e 29 49
e 31 34
e 31 37
e 31 41
e 32 37
e 32 41
e 32 44
e 33 35
e 33 37
e 33 49
e 34 42
e 35 41
e 36 40
e 37 48
e 40 49
e 41 42
e 41 46
